x04m02e0t1tp5
3221
3221
3221
3221
3221
3221
3221
3221
3221
3307
3307
3307
3307
3307
3307
3307
3307
3307
3307
3307
3307
3468
3468
3468
3468
3468
3468
3468
3468
3613
3613
3614
3614
3614
3614
3753
3753
3753
3753
3753
3753
3753
3753
3753
3753
3753
3753
3753
3753
3753
3753
3753
3753
3753
3753
3753
3753
3753
3753
3753
3753
3753
3753
3753
3753
3753
3753
3753
3753
3753
3753
3753
3753
3753
3753
3753
3753
3753
3753
3753
3753
3753
3753
3753
3753
3753
3753
3753
3753
3753
3753
3753
3753
3753
3753
3753
3753
3753
3753
3753
3753
3753
3753
3753
3753
3753
3753
3753
3753
3753
3753
3753
3753
3753
3753
3753
3753
3753
3753
3753
3753
3753
3753
3753
3753
3753
3753
3753
3753
3753
3753
3753
3753
3753
3753
3753
3753
3753
3753
3753
3753
3753
3753
3753
3753
3753
3753
3753
3753
3753
3753
3753
3753
3753
3753
3753
3753
3753
3753
3753
3753
3753
3753
3753
3753
3753
3753
3753
3753
3753
3753
3753
3753
3753
3753
3753
3753
3753
3753
3753
3753
3753
3753
3753
3753
3753
3753
3753
3753
3753
3753
3753
3753
3753
3753
3753
3753
3753
3753
3753
3753
3753
3753
3753
3753
3753
3753
3753
3753
3753
3753
3753
3753
3753
3753
3753
3753
3753
3753
3753
3753
3753
3753
3753
3753
3753
3753
3753
3753
3753
3753
3753
3753
3753
3753
3753
3753
3753
3753
3753
3753
3753
3753
3753
3753
3753
3753
3753
3753
3753
3753
3753
3753
3753
3753
3753
3753
3753
3753
3753
3753
3753
3753
3753
3753
3753
3753
3753
3753
3753
3753
3753
3753
3753
3753
3753
3753
3753
3753
3753
3753
3753
3753
3753
3753
3753
3753
3753
3753
3753
3753
3753
3753
3753
3753
3753
3753
3753
3753
3753
3753
3753
3753
3753
3753
3753
3753
3753
3753
3753
3753
3753
3753
3753
3753
3753
3753
3753
3753
3802
3802
3802
3802
3802
3802
3802
3802
3802
3802
3802
3802
3802
3802
3802
3802
3802
3802
3802
3802
3802
3802
3802
3802
3802
3802
3802
3802
3802
3802
3802
3802
3802
3802
3802
3802
3802
3802
3802
3802
3802
3802
3802
3802
3802
3802
3802
3802
3802
3802
3802
3802
3802
3802
3802
3802
3802
3802
3802
3802
3802
3802
3802
3802
3802
3802
3802
3802
3802
3802
3802
3802
3802
3802
3802
3802
3802
3802
3802
3802
3802
3802
3802
3802
3802
3802
3802
3802
3802
3802
3802
3802
3802
3802
3802
3802
3802
3802
3802
3802
3802
3802
3802
3802
3802
3802
3802
3802
3802
3802
3802
3802
3802
3802
3802
3802
3802
3802
3802
3802
3802
3802
3804
3804
3804
3804
3804
3804
3804
3804
3804
3804
3804
3804
3804
3804
3804
3804
3804
3804
3804
3804
3804
3804
3804
3804
3804
3804
3804
3804
3804
3804
3804
3804
3804
3804
3804
3804
3804
3804
3804
3804
3804
3804
3804
3804
3804
3804
3804
3804
3804
3804
3804
3804
3804
3804
3804
3804
3804
3804
3804
3804
3804
3804
3804
3804
3804
3804
3804
3804
3804
3804
3804
3804
3804
3804
3804
3804
3804
3804
3804
3804
3804
3804
3804
3804
3804
3804
3804
3804
3804
3804
3804
3804
3804
3804
3804
3804
3804
3804
3804
3804
3804
3804
3804
3804
3804
3804
3804
3804
3804
3804
3804
3804
3804
3804
3804
3804
3804
3804
3804
3804
3804
3804
3804
3804
3804
3804
3804
3804
3804
3804
3804
3804
3804
3804
3804
3804
3804
3804
3804
3804
3804
3804
3804
3804
3804
3804
3804
3804
3804
3804
3804
3804
3804
3804
3804
3804
3804
3804
3804
3804
3804
3804
3804
3804
3804
3804
3804
3804
3804
3804
3804
3804
3804
3804
3804
3804
3804
3804
3804
3804
3804
3804
3804
3804
3804
3804
3804
3804
3804
3804
3804
3804
3804
3804
3804
3804
3804
3804
3804
3804
3804
3804
3804
3804
3804
3804
3804
3804
3804
3804
3804
3804
3804
3804
3804
3804
3804
3804
3804
3804
3804
3804
3804
3804
3804
3804
3804
3804
3804
3804
3804
3804
3804
3804
3804
3804
3804
3804
3804
3804
3804
3804
3804
3804
3804
3804
3804
3804
3804
3804
3804
3804
3804
3804
3804
3804
3804
3804
3804
3804
3804
3804
3804
3804
3804
3804
3804
3804
3804
3804
3804
3804
3804
3804
3804
3804
3804
3804
3804
3804
3804
3804
3804
3804
3804
3804
3804
3804
3804
3804
3804
3804
3804
3804
3804
3804
3804
3804
3804
3804
3804
3804
3804
3804
3804
3804
3804
3804
3804
3804
3804
3804
3804
3804
3804
3804
3804
3804
3804
3804
3804
3804
3804
3804
3804
3804
3804
3804
3804
3804
3804
3804
3804
3804
3804
3804
3804
3804
3804
3804
3804
3804
3804
3804
3804
3804
3804
3804
3804
3804
3804
3804
3804
3804
3804
3804
3804
3804
3804
3804
3804
3804
3804
3804
3804
3804
3804
3804
3804
3804
3804
3804
3804
3804
3804
3804
3804
3804
3804
3804
3804
3804
3804
3804
3804
3804
3804
3804
3804
3804
3804
3804
3804
3804
3804
3804
3804
3804
3804
3804
3804
3804
3804
3804
3804
3804
3804
3804
3804
3804
3804
3804
3804
3804
3804
3804
3804
3804
3804
3804
3804
3804
3804
3804
3804
3804
3804
3804
3804
3804
3804
3804
3804
3804
3804
3804
3804
3804
3804
3804
3804
3804
3804
3804
3804
3804
3804
3804
3804
3804
3804
3804
3804
3804
3804
3804
3804
3804
3804
3804
3804
3804
3804
3804
3804
3804
3804
3804
3804
3804
3804
3804
3804
3804
3804
3804
3804
3804
3804
3804
3804
3804
3804
3804
3804
3804
3804
3804
3804
3804
3804
3804
3804
3804
3804
3804
3804
3804
3804
3804
3804
3804
3804
3804
3804
3804
3804
3804
3804
3804
3804
3804
3804
3804
3804
3804
3804
3804
3804
3804
3804
3804
3804
3804
3804
3804
3804
3804
3804
3804
3804
3804
3804
3804
3804
3804
3804
3804
3804
3804
3804
3804
3804
3804
3804
3804
3804
3804
3804
3804
3804
3804
3804
3804
3804
3804
3804
3804
3804
